detailed-output/inst-19-1965286212.dzn

A = 1;
T = 9;
X = 3;
Y = 3;
Z = 2;
building = array2d(0..2, 0..2, [0, 0, 0, 0, 1, 0, 0, 0, 0]);
